unsat
( c100
  c102
  c103
  c1043
  c1044
  c1045
  c1046
  c1047
  c1048
  c1049
  c105
  c1050
  c1052
  c1053
  c1054
  c1055
  c1056
  c1057
  c1058
  c1059
  c106
  c1060
  c1069
  c1071
  c1072
  c1075
  c1076
  c1079
  c108
  c1080
  c1083
  c1084
  c1087
  c1088
  c109
  c1091
  c1092
  c1095
  c1096
  c1099
  c1100
  c1103
  c1104
  c1107
  c1108
  c1109
  c111
  c1112
  c1113
  c1114
  c1117
  c1118
  c1119
  c1122
  c1123
  c1124
  c1127
  c1128
  c1129
  c1132
  c1133
  c1134
  c1137
  c1138
  c1139
  c1142
  c1143
  c1144
  c1149
  c115
  c1150
  c1152
  c1153
  c1158
  c1160
  c1161
  c1166
  c1167
  c1168
  c1169
  c1174
  c1176
  c1177
  c1182
  c1183
  c1184
  c1185
  c1190
  c1191
  c1192
  c1193
  c1198
  c1199
  c120
  c1200
  c1201
  c1206
  c1207
  c1208
  c1209
  c121
  c1214
  c1216
  c1217
  c1222
  c1224
  c1226
  c1228
  c1230
  c1232
  c1234
  c1236
  c1237
  c1247
  c1276
  c1277
  c1278
  c1279
  c1280
  c1281
  c1282
  c1283
  c1284
  c1285
  c1295
  c1296
  c1297
  c1298
  c1299
  c1300
  c1301
  c1302
  c1303
  c1305
  c1306
  c1309
  c1310
  c1313
  c1314
  c1317
  c1318
  c1321
  c1322
  c1325
  c1326
  c1329
  c1330
  c1333
  c1334
  c1337
  c1338
  c1341
  c1342
  c1352
  c1353
  c1356
  c136
  c1360
  c1361
  c1364
  c1365
  c1368
  c1369
  c137
  c1372
  c1373
  c1376
  c1377
  c138
  c1380
  c1381
  c1384
  c1385
  c1388
  c1389
  c139
  c1399
  c140
  c1400
  c1403
  c1404
  c1407
  c141
  c1411
  c1412
  c1415
  c1416
  c1419
  c142
  c1420
  c1423
  c1424
  c1427
  c1428
  c143
  c1431
  c1432
  c1435
  c1436
  c144
  c1446
  c1447
  c145
  c1450
  c1451
  c1454
  c1455
  c1458
  c1462
  c1463
  c1466
  c1467
  c1470
  c1471
  c1474
  c1475
  c1478
  c1479
  c1482
  c1483
  c1493
  c1494
  c1497
  c1498
  c1501
  c1502
  c1505
  c1506
  c1509
  c1513
  c1514
  c1517
  c1518
  c1521
  c1522
  c1525
  c1526
  c1529
  c1530
  c1540
  c1541
  c1544
  c1545
  c1548
  c1549
  c1552
  c1553
  c1556
  c1557
  c1560
  c1564
  c1565
  c1568
  c1569
  c1572
  c1573
  c1576
  c1577
  c1587
  c1588
  c1591
  c1592
  c1595
  c1596
  c1599
  c1600
  c1603
  c1604
  c1607
  c1608
  c1611
  c1615
  c1616
  c1619
  c1620
  c1623
  c1624
  c1634
  c1635
  c1638
  c1639
  c164
  c1642
  c1643
  c1646
  c1647
  c165
  c1650
  c1651
  c1654
  c1655
  c1658
  c1659
  c166
  c1662
  c1666
  c1667
  c167
  c1670
  c1671
  c168
  c1681
  c1682
  c1685
  c1686
  c1689
  c169
  c1690
  c1693
  c1694
  c1697
  c1698
  c170
  c1701
  c1702
  c1705
  c1706
  c1709
  c171
  c1710
  c1713
  c1717
  c1718
  c172
  c1729
  c1730
  c1732
  c1733
  c1734
  c1737
  c1738
  c1739
  c1741
  c1742
  c1743
  c1746
  c1747
  c1751
  c1752
  c1753
  c1756
  c1757
  c1758
  c1760
  c1761
  c1762
  c1765
  c1766
  c1770
  c1771
  c1772
  c1775
  c1776
  c1777
  c1779
  c1780
  c1781
  c1784
  c1785
  c1789
  c179
  c1790
  c1791
  c1794
  c1795
  c1796
  c1798
  c1799
  c180
  c1800
  c1803
  c1804
  c1808
  c1809
  c181
  c1810
  c1813
  c1814
  c1815
  c1817
  c1818
  c1819
  c182
  c1822
  c1823
  c1827
  c1828
  c1829
  c183
  c1832
  c1833
  c1834
  c1836
  c1837
  c1838
  c184
  c1841
  c1842
  c1846
  c1847
  c1848
  c185
  c1851
  c1852
  c1853
  c1855
  c1856
  c1857
  c186
  c1860
  c1861
  c1865
  c1866
  c1867
  c187
  c1870
  c1871
  c1872
  c1874
  c1875
  c1876
  c1879
  c188
  c1880
  c1884
  c1885
  c189
  c1895
  c1896
  c1897
  c190
  c1900
  c1901
  c1902
  c1904
  c1905
  c1906
  c1909
  c191
  c1910
  c1915
  c1916
  c1918
  c1919
  c192
  c1920
  c1923
  c1924
  c1925
  c1927
  c1928
  c1929
  c193
  c1932
  c1933
  c1937
  c1938
  c1939
  c194
  c1942
  c1943
  c1944
  c1946
  c1947
  c1948
  c195
  c1951
  c1952
  c1956
  c1957
  c1958
  c196
  c1961
  c1962
  c1963
  c1965
  c1966
  c1967
  c1970
  c1971
  c1975
  c1976
  c1977
  c1980
  c1981
  c1982
  c1984
  c1985
  c1986
  c1989
  c1990
  c1994
  c1995
  c1996
  c1999
  c2
  c2000
  c2001
  c2003
  c2004
  c2005
  c2008
  c2009
  c2013
  c2014
  c2015
  c2018
  c2019
  c2020
  c2022
  c2023
  c2024
  c2027
  c2028
  c2032
  c2033
  c2034
  c2037
  c2038
  c2039
  c2041
  c2042
  c2043
  c2046
  c2047
  c2051
  c2052
  c206
  c2062
  c2063
  c2064
  c2067
  c2068
  c2069
  c207
  c2071
  c2072
  c2073
  c2076
  c2077
  c208
  c2081
  c2082
  c2083
  c2086
  c2087
  c2088
  c209
  c2090
  c2091
  c2092
  c2095
  c2096
  c210
  c2101
  c2102
  c2104
  c2105
  c2106
  c2109
  c211
  c2110
  c2111
  c2113
  c2114
  c2115
  c2118
  c2119
  c212
  c2123
  c2124
  c2125
  c2128
  c2129
  c213
  c2130
  c2132
  c2133
  c2134
  c2137
  c2138
  c214
  c2142
  c2143
  c2144
  c2147
  c2148
  c2149
  c215
  c2151
  c2152
  c2153
  c2156
  c2157
  c2161
  c2162
  c2163
  c2166
  c2167
  c2168
  c2170
  c2171
  c2172
  c2175
  c2176
  c2180
  c2181
  c2182
  c2185
  c2186
  c2187
  c2189
  c2190
  c2191
  c2194
  c2195
  c2199
  c2200
  c2201
  c2204
  c2205
  c2206
  c2208
  c2209
  c2210
  c2213
  c2214
  c2218
  c2219
  c2229
  c2230
  c2231
  c2234
  c2235
  c2236
  c2238
  c2239
  c2240
  c2243
  c2244
  c2248
  c2249
  c225
  c2250
  c2253
  c2254
  c2255
  c2257
  c2258
  c2259
  c226
  c2262
  c2263
  c2267
  c2268
  c2269
  c227
  c2272
  c2273
  c2274
  c2276
  c2277
  c2278
  c228
  c2281
  c2282
  c2287
  c2288
  c229
  c2290
  c2291
  c2292
  c2295
  c2296
  c2297
  c2299
  c230
  c2300
  c2301
  c2304
  c2305
  c2309
  c231
  c2310
  c2311
  c2314
  c2315
  c2316
  c2318
  c2319
  c232
  c2320
  c2323
  c2324
  c2328
  c2329
  c233
  c2330
  c2333
  c2334
  c2335
  c2337
  c2338
  c2339
  c234
  c2342
  c2343
  c2347
  c2348
  c2349
  c235
  c2352
  c2353
  c2354
  c2356
  c2357
  c2358
  c236
  c2361
  c2362
  c2366
  c2367
  c2368
  c237
  c2371
  c2372
  c2373
  c2375
  c2376
  c2377
  c238
  c2380
  c2381
  c2385
  c2386
  c239
  c2396
  c2397
  c2398
  c240
  c2401
  c2402
  c2403
  c2405
  c2406
  c2407
  c241
  c2410
  c2411
  c2415
  c2416
  c2417
  c242
  c2420
  c2421
  c2422
  c2424
  c2425
  c2426
  c2429
  c243
  c2430
  c2434
  c2435
  c2436
  c2439
  c244
  c2440
  c2441
  c2443
  c2444
  c2445
  c2448
  c2449
  c245
  c2453
  c2454
  c2455
  c2458
  c2459
  c246
  c2460
  c2462
  c2463
  c2464
  c2467
  c2468
  c247
  c2473
  c2474
  c2476
  c2477
  c2478
  c248
  c2481
  c2482
  c2483
  c2485
  c2486
  c2487
  c2490
  c2491
  c2495
  c2496
  c2497
  c250
  c2500
  c2501
  c2502
  c2504
  c2505
  c2506
  c2509
  c251
  c2510
  c2514
  c2515
  c2516
  c2519
  c2520
  c2521
  c2523
  c2524
  c2525
  c2528
  c2529
  c253
  c2533
  c2534
  c2535
  c2538
  c2539
  c254
  c2540
  c2542
  c2543
  c2544
  c2547
  c2548
  c2552
  c2553
  c256
  c2563
  c2564
  c2565
  c2568
  c2569
  c257
  c2570
  c2572
  c2573
  c2574
  c2577
  c2578
  c2582
  c2583
  c2584
  c2587
  c2588
  c2589
  c259
  c2591
  c2592
  c2593
  c2596
  c2597
  c260
  c2601
  c2602
  c2603
  c2606
  c2607
  c2608
  c2610
  c2611
  c2612
  c2615
  c2616
  c2620
  c2621
  c2622
  c2625
  c2626
  c2627
  c2629
  c2630
  c2631
  c2634
  c2635
  c2639
  c2640
  c2641
  c2644
  c2645
  c2646
  c2648
  c2649
  c2650
  c2653
  c2654
  c2659
  c2660
  c2662
  c2663
  c2664
  c2667
  c2668
  c2669
  c2671
  c2672
  c2673
  c2676
  c2677
  c2681
  c2682
  c2683
  c2686
  c2687
  c2688
  c2690
  c2691
  c2692
  c2695
  c2696
  c2700
  c2701
  c2702
  c2705
  c2706
  c2707
  c2709
  c2710
  c2711
  c2714
  c2715
  c2719
  c2720
  c2730
  c2731
  c2732
  c2735
  c2736
  c2737
  c2739
  c2740
  c2741
  c2744
  c2745
  c2749
  c2750
  c2751
  c2754
  c2755
  c2756
  c2758
  c2759
  c2760
  c2763
  c2764
  c2768
  c2769
  c2770
  c2773
  c2774
  c2775
  c2777
  c2778
  c2779
  c2782
  c2783
  c2787
  c2788
  c2789
  c2792
  c2793
  c2794
  c2796
  c2797
  c2798
  c280
  c2801
  c2802
  c2806
  c2807
  c2808
  c281
  c2811
  c2812
  c2813
  c2815
  c2816
  c2817
  c282
  c2820
  c2821
  c2825
  c2826
  c2827
  c283
  c2830
  c2831
  c2832
  c2834
  c2835
  c2836
  c2839
  c284
  c2840
  c2845
  c2846
  c2848
  c2849
  c285
  c2850
  c2853
  c2854
  c2855
  c2857
  c2858
  c2859
  c286
  c2862
  c2863
  c2867
  c2868
  c2869
  c287
  c2872
  c2873
  c2874
  c2876
  c2877
  c2878
  c288
  c2881
  c2882
  c2886
  c2887
  c289
  c2897
  c2898
  c2899
  c290
  c2902
  c2903
  c2904
  c2906
  c2907
  c2908
  c291
  c2911
  c2912
  c2916
  c2917
  c2918
  c292
  c2921
  c2922
  c2923
  c2925
  c2926
  c2927
  c293
  c2930
  c2931
  c2935
  c2936
  c2937
  c294
  c2940
  c2941
  c2942
  c2944
  c2945
  c2946
  c2949
  c295
  c2950
  c2954
  c2955
  c2956
  c2959
  c296
  c2960
  c2961
  c2963
  c2964
  c2965
  c2968
  c2969
  c2973
  c2974
  c2975
  c2978
  c2979
  c298
  c2980
  c2982
  c2983
  c2984
  c2987
  c2988
  c299
  c2992
  c2993
  c2994
  c2997
  c2998
  c2999
  c30
  c300
  c3001
  c3002
  c3003
  c3006
  c3007
  c3011
  c3012
  c3013
  c3016
  c3017
  c3018
  c302
  c3020
  c3021
  c3022
  c3025
  c3026
  c303
  c3031
  c3032
  c3034
  c3035
  c3036
  c3039
  c304
  c3040
  c3041
  c3043
  c3044
  c3045
  c3048
  c3049
  c3053
  c3054
  c306
  c3064
  c3065
  c3066
  c3069
  c307
  c3070
  c3071
  c3073
  c3074
  c3075
  c3078
  c3079
  c308
  c3083
  c3084
  c3085
  c3088
  c3089
  c3090
  c3092
  c3093
  c3094
  c3097
  c3098
  c310
  c3102
  c3103
  c3104
  c3107
  c3108
  c3109
  c311
  c3111
  c3112
  c3113
  c3116
  c3117
  c312
  c3121
  c3122
  c3123
  c3126
  c3127
  c3128
  c3130
  c3131
  c3132
  c3135
  c3136
  c314
  c3140
  c3141
  c3142
  c3145
  c3146
  c3147
  c3149
  c315
  c3150
  c3151
  c3154
  c3155
  c3159
  c316
  c3160
  c3161
  c3164
  c3165
  c3166
  c3168
  c3169
  c3170
  c3173
  c3174
  c3178
  c3179
  c318
  c3180
  c3183
  c3184
  c3185
  c3187
  c3188
  c3189
  c319
  c3192
  c3193
  c3197
  c3198
  c3199
  c320
  c3202
  c3203
  c3204
  c3206
  c3207
  c3208
  c3211
  c3212
  c3217
  c3218
  c322
  c3220
  c3221
  c323
  c3231
  c3232
  c3234
  c3235
  c3237
  c3238
  c324
  c3240
  c3241
  c3243
  c3244
  c3246
  c3247
  c3249
  c3250
  c3252
  c3253
  c326
  c327
  c328
  c3292
  c3293
  c3294
  c3295
  c3296
  c3297
  c3298
  c3299
  c330
  c3300
  c3309
  c331
  c3311
  c3312
  c3315
  c3316
  c3319
  c332
  c3320
  c3323
  c3324
  c3327
  c3328
  c3331
  c3332
  c3335
  c3336
  c3339
  c334
  c3340
  c3343
  c3344
  c3347
  c3348
  c3349
  c335
  c3352
  c3353
  c3354
  c3357
  c3358
  c3359
  c3362
  c3363
  c3364
  c3367
  c3368
  c3369
  c3372
  c3373
  c3374
  c3377
  c3378
  c3379
  c3382
  c3383
  c3384
  c3387
  c3388
  c3389
  c339
  c3392
  c3393
  c3394
  c3397
  c3398
  c3399
  c340
  c3402
  c3403
  c3404
  c3407
  c3408
  c3409
  c3412
  c3413
  c3414
  c3417
  c3418
  c3419
  c3422
  c3423
  c3424
  c3427
  c3428
  c3429
  c3432
  c3433
  c3434
  c3439
  c344
  c3443
  c345
  c3481
  c3482
  c3483
  c3484
  c3485
  c3486
  c3487
  c3488
  c3489
  c349
  c3490
  c3491
  c3492
  c3493
  c3494
  c3495
  c3496
  c3497
  c3498
  c3499
  c350
  c3500
  c3501
  c3502
  c3503
  c3504
  c3505
  c3506
  c3507
  c3508
  c3512
  c3515
  c3518
  c3521
  c3524
  c3525
  c3526
  c3527
  c3528
  c3529
  c3530
  c3531
  c3532
  c3533
  c3534
  c3535
  c3536
  c3537
  c3538
  c3539
  c354
  c3540
  c3541
  c3542
  c355
  c3560
  c3564
  c3568
  c3572
  c3576
  c3580
  c3584
  c3588
  c359
  c3592
  c3596
  c3599
  c360
  c3600
  c3601
  c3604
  c3605
  c3606
  c3609
  c3610
  c3611
  c3614
  c3615
  c3616
  c3619
  c3620
  c3621
  c3624
  c3625
  c3626
  c3629
  c3630
  c3631
  c3634
  c3635
  c3636
  c3639
  c364
  c3640
  c3641
  c3645
  c3649
  c365
  c3653
  c3657
  c3661
  c3665
  c3666
  c3667
  c3668
  c3669
  c3670
  c3671
  c3672
  c3673
  c3674
  c3675
  c3676
  c3677
  c3678
  c3679
  c3680
  c3681
  c3682
  c3683
  c3684
  c3685
  c3686
  c3687
  c3688
  c3689
  c369
  c3690
  c3691
  c3692
  c3693
  c3694
  c3695
  c370
  c3724
  c3730
  c3733
  c3736
  c3739
  c374
  c3742
  c3745
  c3748
  c375
  c3751
  c3754
  c3755
  c3756
  c3757
  c3758
  c3759
  c3760
  c3761
  c3765
  c3771
  c3774
  c3777
  c3780
  c3783
  c3786
  c3789
  c379
  c3792
  c3793
  c3794
  c3795
  c3796
  c3797
  c3798
  c380
  c3800
  c3803
  c3806
  c381
  c3812
  c3815
  c3818
  c3821
  c3824
  c3827
  c383
  c3830
  c3831
  c3832
  c3833
  c3834
  c3835
  c3837
  c3838
  c384
  c3841
  c3844
  c3847
  c385
  c3853
  c3856
  c3859
  c3862
  c3865
  c3868
  c3869
  c387
  c3870
  c3871
  c3872
  c3874
  c3875
  c3876
  c3879
  c388
  c3882
  c3885
  c3888
  c389
  c3894
  c3897
  c3900
  c3903
  c3906
  c3907
  c3908
  c3909
  c391
  c3911
  c3912
  c3913
  c3914
  c3917
  c392
  c3920
  c3923
  c3926
  c3929
  c393
  c3935
  c3938
  c3941
  c3944
  c3945
  c3946
  c3948
  c3949
  c395
  c3950
  c3951
  c3952
  c3955
  c3958
  c396
  c3961
  c3964
  c3967
  c397
  c3970
  c3976
  c3979
  c3982
  c3983
  c3985
  c3986
  c3987
  c3988
  c3989
  c399
  c3990
  c3993
  c3996
  c3999
  c400
  c4002
  c4005
  c4008
  c401
  c4011
  c4017
  c4020
  c4022
  c4023
  c4024
  c4025
  c4026
  c4027
  c4028
  c403
  c4031
  c4034
  c4037
  c404
  c4040
  c4043
  c4046
  c4049
  c405
  c4052
  c4059
  c4060
  c4061
  c4062
  c4063
  c4064
  c4065
  c4066
  c407
  c4070
  c4073
  c4076
  c4079
  c408
  c4080
  c4083
  c4086
  c4089
  c409
  c4092
  c4093
  c4094
  c4097
  c4100
  c4103
  c4106
  c4109
  c4110
  c4111
  c4112
  c4115
  c4118
  c4121
  c4124
  c4127
  c4130
  c4131
  c4132
  c4133
  c4134
  c4137
  c4140
  c4143
  c4146
  c4149
  c4152
  c4155
  c4156
  c4157
  c4158
  c4159
  c4160
  c4163
  c4166
  c4169
  c4172
  c4175
  c4178
  c4181
  c4184
  c4185
  c4186
  c4187
  c4188
  c4189
  c4190
  c4193
  c4196
  c4199
  c4202
  c4205
  c4208
  c4211
  c4214
  c4217
  c4218
  c4219
  c4220
  c4221
  c4222
  c4223
  c4224
  c4227
  c4230
  c4233
  c4236
  c4239
  c4242
  c4245
  c4248
  c4251
  c4255
  c4259
  c4260
  c4261
  c4262
  c4263
  c4264
  c4265
  c4266
  c4267
  c4268
  c4269
  c4270
  c4271
  c4272
  c4273
  c4274
  c4275
  c4276
  c4277
  c4278
  c4279
  c4280
  c4281
  c4282
  c4283
  c4284
  c4285
  c4286
  c4287
  c4288
  c4289
  c4290
  c4291
  c4292
  c4293
  c4294
  c4295
  c4296
  c4297
  c4298
  c4299
  c4300
  c4301
  c4302
  c4303
  c4304
  c4333
  c4336
  c4337
  c4340
  c4341
  c4344
  c4345
  c4348
  c4349
  c4352
  c4353
  c4356
  c4357
  c4360
  c4361
  c4364
  c4365
  c4368
  c4369
  c4373
  c4374
  c4378
  c4379
  c4383
  c4384
  c4388
  c4389
  c4393
  c4394
  c4398
  c4399
  c4403
  c4404
  c4408
  c4409
  c441
  c4413
  c4414
  c4419
  c442
  c4420
  c4421
  c4427
  c4428
  c4429
  c443
  c4435
  c4436
  c4437
  c444
  c4443
  c4444
  c4445
  c445
  c4451
  c4452
  c4453
  c4459
  c446
  c4460
  c4461
  c4467
  c4468
  c4469
  c447
  c4471
  c4472
  c4474
  c4475
  c4477
  c4478
  c448
  c4480
  c4481
  c4484
  c4486
  c4488
  c449
  c4490
  c4492
  c4494
  c4496
  c4499
  c450
  c4500
  c4505
  c4506
  c4507
  c4508
  c4509
  c451
  c4510
  c4511
  c4512
  c4513
  c4514
  c4515
  c4516
  c4517
  c4518
  c4519
  c452
  c4520
  c4521
  c4522
  c4523
  c4524
  c4525
  c4526
  c4527
  c4528
  c4529
  c453
  c4530
  c4531
  c4532
  c4533
  c4534
  c4535
  c4536
  c454
  c455
  c4554
  c4556
  c456
  c4561
  c4562
  c4565
  c4566
  c4569
  c457
  c4570
  c4573
  c4574
  c4577
  c4578
  c458
  c4581
  c4582
  c4585
  c4586
  c4589
  c4590
  c4593
  c4594
  c4595
  c4596
  c4597
  c4598
  c4599
  c460
  c4600
  c4603
  c4604
  c4605
  c461
  c4612
  c4613
  c4616
  c4617
  c462
  c4620
  c4621
  c4624
  c4625
  c4628
  c4629
  c463
  c4632
  c4633
  c4636
  c4637
  c464
  c4640
  c4641
  c4642
  c4643
  c4644
  c4645
  c4646
  c4648
  c465
  c4650
  c4651
  c4652
  c4655
  c4656
  c466
  c4663
  c4664
  c4667
  c4668
  c467
  c4671
  c4672
  c4675
  c4676
  c4679
  c468
  c4680
  c4683
  c4684
  c4687
  c4688
  c4689
  c4690
  c4691
  c4692
  c4694
  c4695
  c4697
  c4698
  c4699
  c470
  c4702
  c4703
  c4706
  c4707
  c4714
  c4715
  c4718
  c4719
  c4722
  c4723
  c4726
  c4727
  c473
  c4730
  c4731
  c4734
  c4735
  c4736
  c4737
  c4738
  c474
  c4740
  c4741
  c4742
  c4744
  c4745
  c4746
  c4749
  c4750
  c4753
  c4754
  c4757
  c4758
  c476
  c4765
  c4766
  c4769
  c477
  c4770
  c4773
  c4774
  c4777
  c4778
  c4781
  c4782
  c4783
  c4784
  c4786
  c4787
  c4788
  c4789
  c479
  c4791
  c4792
  c4793
  c4796
  c4797
  c48
  c480
  c4800
  c4801
  c4804
  c4805
  c4808
  c4809
  c4816
  c4817
  c482
  c4820
  c4821
  c4824
  c4825
  c4828
  c4829
  c483
  c4830
  c4832
  c4833
  c4834
  c4835
  c4836
  c4838
  c4839
  c4840
  c4843
  c4844
  c4847
  c4848
  c485
  c4851
  c4852
  c4855
  c4856
  c4859
  c486
  c4860
  c4867
  c4868
  c4871
  c4872
  c4875
  c4876
  c4878
  c4879
  c488
  c4880
  c4881
  c4882
  c4883
  c4885
  c4886
  c4887
  c489
  c4890
  c4891
  c4894
  c4895
  c4898
  c4899
  c49
  c4902
  c4903
  c4906
  c4907
  c491
  c4910
  c4911
  c4918
  c4919
  c492
  c4922
  c4924
  c4925
  c4926
  c4927
  c4928
  c4929
  c4930
  c4932
  c4933
  c4934
  c4937
  c4938
  c494
  c4941
  c4942
  c4945
  c4946
  c4949
  c495
  c4950
  c4953
  c4954
  c4957
  c4958
  c4961
  c4962
  c4966
  c497
  c4970
  c4971
  c4972
  c4973
  c4974
  c4975
  c4976
  c4977
  c498
  c4985
  c4986
  c4990
  c4994
  c4995
  c4998
  c4999
  c5000
  c5004
  c5005
  c5009
  c5013
  c5014
  c5017
  c5018
  c5019
  c5023
  c5024
  c5028
  c5032
  c5033
  c5036
  c5037
  c5038
  c5042
  c5043
  c5047
  c5051
  c5052
  c5055
  c5056
  c5057
  c5061
  c5062
  c5066
  c5070
  c5071
  c5074
  c5075
  c5076
  c508
  c5080
  c5081
  c5085
  c5089
  c509
  c5090
  c5093
  c5094
  c5095
  c5099
  c51
  c5100
  c5104
  c5108
  c5109
  c511
  c5112
  c5113
  c5114
  c5118
  c5119
  c5123
  c5132
  c5133
  c5136
  c5137
  c5138
  c5139
  c514
  c5140
  c5141
  c5142
  c5143
  c5148
  c5149
  c515
  c5163
  c517
  c5171
  c5172
  c5176
  c518
  c5180
  c5181
  c5184
  c5185
  c5186
  c5190
  c5191
  c5195
  c5199
  c52
  c520
  c5200
  c5203
  c5204
  c5205
  c5209
  c521
  c5210
  c5214
  c5218
  c5219
  c5222
  c5223
  c5224
  c5228
  c5229
  c523
  c5233
  c5238
  c524
  c5241
  c5242
  c5243
  c5247
  c5248
  c5252
  c5256
  c5257
  c526
  c5260
  c5261
  c5262
  c5266
  c5267
  c527
  c5271
  c5275
  c5276
  c5279
  c5280
  c5281
  c5285
  c5286
  c529
  c5290
  c5299
  c53
  c530
  c5300
  c5303
  c5304
  c5305
  c5306
  c5307
  c5308
  c5309
  c5311
  c5315
  c5316
  c532
  c533
  c5330
  c5334
  c5335
  c5349
  c535
  c5357
  c5358
  c536
  c5362
  c5366
  c5367
  c5370
  c5371
  c5372
  c5376
  c5377
  c5381
  c5385
  c5386
  c5389
  c5390
  c5391
  c5395
  c5396
  c54
  c5400
  c5404
  c5405
  c5408
  c5409
  c5410
  c5414
  c5415
  c5419
  c5424
  c5427
  c5428
  c5429
  c5433
  c5434
  c5438
  c5442
  c5443
  c5446
  c5447
  c5448
  c5452
  c5453
  c5457
  c546
  c5461
  c5462
  c5465
  c5466
  c5467
  c547
  c5470
  c5471
  c5472
  c5473
  c5474
  c5475
  c5477
  c5478
  c5482
  c5483
  c549
  c5497
  c55
  c550
  c5501
  c5502
  c5516
  c552
  c5520
  c5521
  c5535
  c5543
  c5544
  c5548
  c555
  c5552
  c5553
  c5556
  c5557
  c5558
  c556
  c5562
  c5563
  c5567
  c5571
  c5572
  c5575
  c5576
  c5577
  c558
  c5581
  c5582
  c5586
  c559
  c5590
  c5591
  c5594
  c5595
  c5596
  c5600
  c5601
  c5609
  c561
  c5610
  c5613
  c5615
  c5619
  c562
  c5620
  c5624
  c5629
  c5632
  c5633
  c5634
  c5637
  c5638
  c5639
  c564
  c5640
  c5641
  c5643
  c5644
  c5645
  c5649
  c565
  c5650
  c5664
  c5668
  c5669
  c567
  c568
  c5683
  c5687
  c5688
  c57
  c570
  c5702
  c5706
  c5707
  c571
  c5721
  c5729
  c573
  c5730
  c5734
  c5738
  c5739
  c574
  c5742
  c5743
  c5744
  c5748
  c5749
  c5753
  c5757
  c5758
  c5761
  c5762
  c5763
  c5767
  c5768
  c5772
  c5777
  c5780
  c5781
  c5782
  c5786
  c5787
  c5791
  c5795
  c5796
  c5799
  c58
  c5800
  c5801
  c5804
  c5805
  c5806
  c5807
  c5809
  c5810
  c5811
  c5812
  c5816
  c5817
  c5831
  c5835
  c5836
  c584
  c5844
  c5848
  c585
  c5850
  c5854
  c5855
  c5869
  c587
  c5873
  c5874
  c588
  c5888
  c5892
  c5893
  c59
  c590
  c5907
  c591
  c5915
  c5916
  c5920
  c5924
  c5925
  c5928
  c5929
  c593
  c5930
  c5934
  c5935
  c5939
  c5943
  c5944
  c5947
  c5948
  c5949
  c5953
  c5954
  c5958
  c596
  c5962
  c5963
  c5966
  c5967
  c5968
  c597
  c5971
  c5972
  c5973
  c5975
  c5976
  c5977
  c5978
  c5979
  c5983
  c5984
  c599
  c5998
  c60
  c600
  c6002
  c6003
  c6017
  c602
  c6021
  c6022
  c603
  c6030
  c6034
  c6036
  c6040
  c6041
  c605
  c6055
  c6059
  c606
  c6060
  c6074
  c6078
  c6079
  c608
  c609
  c6093
  c61
  c6101
  c6102
  c6106
  c611
  c6110
  c6111
  c6114
  c6115
  c6116
  c612
  c6120
  c6121
  c6125
  c6129
  c6130
  c6133
  c6134
  c6135
  c6138
  c6139
  c6141
  c6142
  c6143
  c6144
  c6145
  c6146
  c6150
  c6151
  c6165
  c6169
  c6170
  c6184
  c6188
  c6189
  c62
  c6203
  c6207
  c6208
  c6212
  c622
  c6221
  c6222
  c6226
  c6227
  c623
  c6235
  c6239
  c6241
  c6245
  c6246
  c625
  c626
  c6260
  c6264
  c6265
  c6279
  c628
  c6287
  c6288
  c629
  c6292
  c6296
  c6297
  c6300
  c6301
  c6302
  c6305
  c6307
  c6308
  c6309
  c631
  c6310
  c6311
  c6312
  c6313
  c6317
  c6318
  c632
  c6326
  c6327
  c6330
  c6332
  c6336
  c6337
  c634
  c6345
  c6346
  c6349
  c6351
  c6355
  c6356
  c637
  c6370
  c6374
  c6375
  c638
  c6383
  c6387
  c6389
  c6393
  c6394
  c64
  c640
  c6408
  c641
  c6412
  c6413
  c6427
  c643
  c6431
  c6432
  c644
  c6446
  c6450
  c6451
  c646
  c6465
  c647
  c6473
  c6474
  c6475
  c6476
  c6477
  c6478
  c6479
  c6480
  c6483
  c6486
  c6489
  c649
  c6492
  c6495
  c6498
  c65
  c650
  c6501
  c6504
  c6505
  c6506
  c6507
  c6508
  c6509
  c6510
  c6511
  c6512
  c6513
  c6514
  c6515
  c6516
  c6517
  c6518
  c6519
  c6520
  c6521
  c6522
  c6523
  c6524
  c6525
  c6526
  c6527
  c6528
  c6529
  c6530
  c6531
  c6532
  c6533
  c6534
  c6535
  c6536
  c6537
  c6538
  c6539
  c6540
  c6541
  c6560
  c6563
  c6564
  c6567
  c6568
  c6571
  c6572
  c6575
  c6576
  c6579
  c6580
  c6583
  c6584
  c6587
  c6588
  c6591
  c6592
  c6595
  c6596
  c66
  c660
  c6600
  c6601
  c6605
  c6606
  c661
  c6610
  c6611
  c6615
  c6616
  c6620
  c6621
  c6625
  c6626
  c663
  c6630
  c6631
  c6635
  c6636
  c664
  c6640
  c6641
  c6645
  c6646
  c6650
  c6651
  c6655
  c6656
  c666
  c6660
  c6661
  c6665
  c6666
  c667
  c6670
  c6671
  c6672
  c6673
  c6675
  c6676
  c6678
  c6679
  c6681
  c6682
  c6683
  c6685
  c6686
  c6687
  c6688
  c6689
  c669
  c6690
  c6691
  c6692
  c6693
  c6694
  c6695
  c6696
  c6697
  c6698
  c6699
  c67
  c670
  c6700
  c6701
  c6702
  c6703
  c6704
  c6705
  c6706
  c6707
  c6708
  c6709
  c6710
  c6711
  c6712
  c6713
  c6714
  c6715
  c6716
  c6717
  c6718
  c6719
  c672
  c6720
  c6721
  c673
  c675
  c6750
  c6751
  c6752
  c6753
  c6754
  c6755
  c6756
  c6757
  c6758
  c6759
  c6760
  c6763
  c6764
  c6767
  c6768
  c6771
  c6772
  c6775
  c6776
  c6779
  c678
  c6780
  c6783
  c6784
  c6787
  c6788
  c679
  c6791
  c6792
  c6793
  c6794
  c6796
  c6797
  c6798
  c6799
  c68
  c6800
  c6801
  c6802
  c6803
  c6804
  c6805
  c6806
  c6808
  c6809
  c681
  c6810
  c6811
  c6812
  c6814
  c6815
  c6816
  c6819
  c682
  c6820
  c6821
  c6822
  c6823
  c6826
  c6827
  c6828
  c6829
  c6830
  c6833
  c6834
  c6835
  c6836
  c6837
  c684
  c6840
  c6841
  c6842
  c6843
  c6844
  c6847
  c6848
  c6849
  c685
  c6850
  c6851
  c6854
  c6855
  c6856
  c6857
  c6858
  c6861
  c6862
  c6863
  c6864
  c6865
  c6868
  c6869
  c687
  c6870
  c6871
  c6872
  c6873
  c6874
  c6875
  c6876
  c6877
  c6878
  c6879
  c688
  c6880
  c6881
  c6882
  c6883
  c6884
  c6886
  c6887
  c6888
  c6892
  c6893
  c6894
  c6895
  c6896
  c6897
  c6898
  c6899
  c6900
  c6901
  c6902
  c6903
  c6904
  c6905
  c6906
  c6907
  c6908
  c6909
  c6910
  c6912
  c6915
  c6916
  c6917
  c6918
  c6919
  c6920
  c6921
  c6922
  c6923
  c6924
  c6925
  c6926
  c6927
  c6928
  c6929
  c6930
  c6932
  c6933
  c6936
  c6937
  c6938
  c6939
  c6940
  c6941
  c6942
  c6943
  c6944
  c6945
  c6946
  c6947
  c6948
  c6949
  c6950
  c6952
  c6955
  c6956
  c6958
  c6959
  c6960
  c6961
  c6962
  c6963
  c6964
  c6965
  c6966
  c6967
  c6968
  c6969
  c6970
  c6971
  c6973
  c6974
  c6977
  c6978
  c6979
  c698
  c6980
  c6981
  c6982
  c6983
  c6984
  c6985
  c6986
  c6987
  c6988
  c6989
  c699
  c6990
  c6991
  c6992
  c6993
  c6994
  c6997
  c6998
  c6999
  c70
  c7000
  c7001
  c7002
  c7003
  c7004
  c7005
  c7006
  c7007
  c7008
  c7009
  c701
  c7010
  c7011
  c7012
  c7013
  c7016
  c7017
  c7018
  c7019
  c702
  c7020
  c7021
  c7022
  c7023
  c7024
  c7025
  c7026
  c7027
  c7028
  c7030
  c7031
  c7032
  c7036
  c7038
  c7039
  c704
  c7040
  c7041
  c7042
  c7043
  c7044
  c7045
  c7046
  c7047
  c7048
  c7049
  c705
  c7050
  c7051
  c7055
  c7056
  c7057
  c7058
  c7059
  c7060
  c7061
  c7062
  c7063
  c7064
  c7065
  c7066
  c7067
  c7068
  c7069
  c707
  c7070
  c7071
  c7072
  c7073
  c7074
  c7075
  c7076
  c7077
  c7078
  c7079
  c708
  c7090
  c7091
  c7093
  c7094
  c7095
  c7096
  c7097
  c7098
  c7099
  c71
  c710
  c7100
  c7101
  c7102
  c7104
  c7105
  c7106
  c7107
  c7108
  c7109
  c711
  c7111
  c7112
  c7113
  c7116
  c7117
  c7118
  c7119
  c7120
  c7121
  c7122
  c7123
  c7124
  c7125
  c7126
  c7127
  c7128
  c7129
  c713
  c7130
  c7131
  c7133
  c7134
  c7136
  c7138
  c7139
  c714
  c7140
  c7141
  c7142
  c7143
  c7144
  c7145
  c7146
  c7147
  c7148
  c7149
  c7150
  c7151
  c7152
  c7153
  c7154
  c7156
  c7159
  c716
  c7160
  c7161
  c7162
  c7163
  c7164
  c7165
  c7166
  c7167
  c7168
  c7169
  c7170
  c7171
  c7172
  c7173
  c7175
  c7176
  c7177
  c7180
  c7181
  c7182
  c7183
  c7184
  c7185
  c7186
  c7187
  c7188
  c7189
  c719
  c7190
  c7191
  c7192
  c7193
  c7194
  c7196
  c7199
  c72
  c720
  c7200
  c7202
  c7203
  c7204
  c7205
  c7206
  c7207
  c7208
  c7209
  c7210
  c7211
  c7212
  c7213
  c7214
  c7216
  c7217
  c7218
  c722
  c7221
  c7222
  c7223
  c7224
  c7225
  c7226
  c7227
  c7228
  c7229
  c723
  c7230
  c7231
  c7232
  c7233
  c7234
  c7235
  c7236
  c7237
  c7238
  c7241
  c7242
  c7243
  c7244
  c7245
  c7246
  c7247
  c7248
  c7249
  c725
  c7250
  c7251
  c7252
  c7253
  c7254
  c7255
  c7256
  c7257
  c726
  c7260
  c7261
  c7262
  c7263
  c7264
  c7265
  c7266
  c7267
  c7268
  c7269
  c7270
  c7271
  c7273
  c7274
  c7275
  c7276
  c7280
  c7281
  c7282
  c7283
  c7284
  c7285
  c7286
  c7287
  c7288
  c7289
  c7290
  c7291
  c7292
  c7293
  c7294
  c7295
  c7299
  c73
  c7300
  c7301
  c7302
  c7303
  c7304
  c7305
  c7306
  c7307
  c7308
  c7309
  c7310
  c7311
  c7312
  c7313
  c7314
  c7315
  c7316
  c7317
  c7318
  c7319
  c7320
  c7321
  c7322
  c7323
  c7334
  c7335
  c7337
  c7338
  c7339
  c7340
  c7341
  c7342
  c7343
  c7344
  c7345
  c7347
  c7348
  c7349
  c7350
  c7351
  c7352
  c7353
  c7355
  c7356
  c7357
  c7358
  c7359
  c736
  c7360
  c7361
  c7362
  c7363
  c7364
  c7365
  c7366
  c7367
  c7369
  c737
  c7370
  c7371
  c7373
  c7375
  c7376
  c7377
  c7378
  c7379
  c7380
  c7381
  c7382
  c7383
  c7384
  c7385
  c7386
  c7387
  c7388
  c7389
  c739
  c7390
  c7391
  c7393
  c7395
  c7396
  c7397
  c7398
  c7399
  c74
  c740
  c7400
  c7401
  c7402
  c7403
  c7404
  c7405
  c7406
  c7407
  c7408
  c7409
  c7411
  c7412
  c7413
  c7414
  c7417
  c7418
  c7419
  c742
  c7420
  c7421
  c7422
  c7423
  c7424
  c7425
  c7426
  c7427
  c7428
  c7429
  c743
  c7430
  c7431
  c7433
  c7435
  c7436
  c7437
  c7439
  c7440
  c7441
  c7442
  c7443
  c7444
  c7445
  c7446
  c7447
  c7448
  c7449
  c745
  c7450
  c7452
  c7453
  c7454
  c7455
  c7458
  c7459
  c746
  c7460
  c7461
  c7462
  c7463
  c7464
  c7465
  c7466
  c7467
  c7468
  c7469
  c7470
  c7471
  c7472
  c7473
  c7474
  c7475
  c7478
  c7479
  c748
  c7480
  c7481
  c7482
  c7483
  c7484
  c7485
  c7486
  c7487
  c7488
  c7489
  c749
  c7490
  c7491
  c7492
  c7493
  c7494
  c7496
  c7497
  c7498
  c7499
  c7500
  c7501
  c7502
  c7503
  c7504
  c7505
  c7506
  c7507
  c7509
  c751
  c7510
  c7511
  c7512
  c7513
  c7517
  c7519
  c752
  c7520
  c7521
  c7522
  c7523
  c7524
  c7525
  c7526
  c7527
  c7528
  c7529
  c7530
  c7531
  c7532
  c7536
  c7537
  c7538
  c7539
  c754
  c7540
  c7541
  c7542
  c7543
  c7544
  c7545
  c7546
  c7547
  c7548
  c7549
  c755
  c7550
  c7551
  c7552
  c7553
  c7554
  c7555
  c7556
  c7557
  c7558
  c7559
  c7560
  c757
  c7571
  c7572
  c7574
  c7575
  c7576
  c7577
  c7578
  c7579
  c7580
  c7581
  c7583
  c7584
  c7585
  c7586
  c7587
  c7588
  c7589
  c7590
  c7592
  c7593
  c7594
  c7595
  c7596
  c7597
  c7598
  c7599
  c76
  c760
  c7600
  c7601
  c7602
  c7603
  c7605
  c7606
  c7607
  c7608
  c761
  c7610
  c7612
  c7613
  c7614
  c7615
  c7616
  c7617
  c7618
  c7619
  c7620
  c7621
  c7622
  c7623
  c7624
  c7625
  c7626
  c7627
  c7628
  c763
  c7630
  c7633
  c7634
  c7635
  c7636
  c7637
  c7638
  c7639
  c764
  c7640
  c7641
  c7642
  c7643
  c7644
  c7645
  c7647
  c7648
  c7649
  c7650
  c7651
  c7654
  c7655
  c7656
  c7657
  c7658
  c7659
  c7660
  c7661
  c7662
  c7663
  c7664
  c7665
  c7666
  c7667
  c7668
  c7670
  c7673
  c7674
  c7676
  c7677
  c7678
  c7679
  c7680
  c7681
  c7682
  c7683
  c7684
  c7685
  c7686
  c7688
  c7689
  c7690
  c7691
  c7692
  c7695
  c7696
  c7697
  c7698
  c7699
  c77
  c7700
  c7701
  c7702
  c7703
  c7704
  c7705
  c7706
  c7707
  c7708
  c7709
  c7710
  c7711
  c7712
  c7715
  c7716
  c7717
  c7718
  c7719
  c7720
  c7721
  c7722
  c7723
  c7724
  c7725
  c7726
  c7727
  c7728
  c7729
  c7730
  c7731
  c7733
  c7734
  c7735
  c7736
  c7737
  c7738
  c7739
  c774
  c7740
  c7741
  c7742
  c7743
  c7745
  c7746
  c7747
  c7748
  c7749
  c775
  c7750
  c7754
  c7756
  c7757
  c7758
  c7759
  c7760
  c7761
  c7762
  c7763
  c7764
  c7765
  c7766
  c7767
  c7768
  c7769
  c777
  c7773
  c7774
  c7775
  c7776
  c7777
  c7778
  c7779
  c778
  c7780
  c7781
  c7782
  c7783
  c7784
  c7785
  c7786
  c7787
  c7788
  c7789
  c7790
  c7791
  c7792
  c7793
  c7794
  c7795
  c7796
  c7797
  c78
  c780
  c7808
  c7809
  c781
  c7811
  c7812
  c7813
  c7814
  c7815
  c7816
  c7817
  c7819
  c7820
  c7821
  c7822
  c7823
  c7824
  c7825
  c7826
  c7827
  c7829
  c783
  c7830
  c7831
  c7832
  c7833
  c7834
  c7835
  c7836
  c7837
  c7838
  c7839
  c784
  c7841
  c7842
  c7843
  c7844
  c7845
  c7847
  c7849
  c7850
  c7851
  c7852
  c7853
  c7854
  c7855
  c7856
  c7857
  c7858
  c7859
  c786
  c7860
  c7861
  c7862
  c7863
  c7864
  c7865
  c7867
  c7869
  c787
  c7870
  c7871
  c7872
  c7873
  c7874
  c7875
  c7876
  c7877
  c7878
  c7879
  c7880
  c7881
  c7883
  c7884
  c7885
  c7886
  c7887
  c7888
  c789
  c7891
  c7892
  c7893
  c7894
  c7895
  c7896
  c7897
  c7898
  c7899
  c79
  c790
  c7900
  c7901
  c7902
  c7903
  c7904
  c7905
  c7907
  c7910
  c7911
  c7913
  c7914
  c7915
  c7916
  c7917
  c7918
  c7919
  c792
  c7920
  c7921
  c7922
  c7924
  c7925
  c7926
  c7927
  c7928
  c7929
  c793
  c7932
  c7933
  c7934
  c7935
  c7936
  c7937
  c7938
  c7939
  c7940
  c7941
  c7942
  c7943
  c7944
  c7945
  c7946
  c7947
  c7948
  c7949
  c795
  c7952
  c7953
  c7954
  c7955
  c7956
  c7957
  c7958
  c7959
  c796
  c7960
  c7961
  c7962
  c7963
  c7964
  c7965
  c7966
  c7967
  c7968
  c7971
  c7972
  c7973
  c7974
  c7975
  c7976
  c7977
  c7978
  c7979
  c798
  c7981
  c7982
  c7983
  c7984
  c7985
  c7986
  c7987
  c7991
  c7992
  c7993
  c7994
  c7995
  c7996
  c7997
  c7998
  c7999
  c80
  c8000
  c8001
  c8002
  c8003
  c8004
  c8005
  c8006
  c801
  c8010
  c8011
  c8012
  c8013
  c8014
  c8015
  c8016
  c8017
  c8018
  c8019
  c802
  c8020
  c8021
  c8022
  c8023
  c8024
  c8025
  c8026
  c8027
  c8028
  c8029
  c8030
  c8031
  c8032
  c8033
  c8034
  c8045
  c8046
  c8048
  c8049
  c8050
  c8051
  c8052
  c8053
  c8055
  c8056
  c8057
  c8058
  c8059
  c8060
  c8061
  c8062
  c8063
  c8064
  c8066
  c8067
  c8068
  c8069
  c8070
  c8071
  c8072
  c8073
  c8074
  c8075
  c8077
  c8078
  c8079
  c8080
  c8081
  c8082
  c8084
  c8085
  c8086
  c8087
  c8088
  c8089
  c8090
  c8091
  c8092
  c8093
  c8094
  c8095
  c8096
  c8097
  c8098
  c8099
  c81
  c8100
  c8101
  c8102
  c8104
  c8106
  c8107
  c8108
  c8109
  c8110
  c8111
  c8112
  c8113
  c8114
  c8115
  c8116
  c8117
  c8119
  c812
  c8120
  c8121
  c8122
  c8123
  c8124
  c8125
  c8128
  c8129
  c813
  c8130
  c8131
  c8132
  c8133
  c8134
  c8135
  c8136
  c8137
  c8138
  c8139
  c814
  c8140
  c8141
  c8142
  c8144
  c8147
  c8148
  c8150
  c8151
  c8152
  c8153
  c8154
  c8155
  c8156
  c8157
  c8158
  c816
  c8160
  c8161
  c8162
  c8163
  c8164
  c8165
  c8166
  c8169
  c817
  c8170
  c8171
  c8172
  c8173
  c8174
  c8175
  c8176
  c8177
  c8178
  c8179
  c8180
  c8181
  c8182
  c8183
  c8184
  c8185
  c8186
  c8189
  c819
  c8190
  c8191
  c8192
  c8193
  c8194
  c8195
  c8196
  c8197
  c8198
  c8199
  c820
  c8200
  c8201
  c8202
  c8203
  c8204
  c8205
  c8208
  c8209
  c8210
  c8211
  c8212
  c8213
  c8214
  c8215
  c8217
  c8218
  c8219
  c822
  c8220
  c8221
  c8222
  c8223
  c8224
  c8228
  c823
  c8230
  c8231
  c8232
  c8233
  c8234
  c8235
  c8236
  c8237
  c8238
  c8239
  c8240
  c8241
  c8242
  c8243
  c8247
  c8248
  c8249
  c8250
  c8251
  c8252
  c8253
  c8254
  c8255
  c8256
  c8257
  c8258
  c8259
  c826
  c8260
  c8261
  c8262
  c8263
  c8264
  c8265
  c8266
  c8267
  c8268
  c8269
  c827
  c8270
  c8271
  c8282
  c8283
  c8285
  c8286
  c8287
  c8288
  c8289
  c829
  c8291
  c8292
  c8293
  c8294
  c8295
  c8296
  c8297
  c8298
  c8299
  c83
  c830
  c8300
  c8301
  c8303
  c8304
  c8305
  c8306
  c8307
  c8308
  c8309
  c8310
  c8311
  c8313
  c8314
  c8315
  c8316
  c8317
  c8318
  c8319
  c832
  c8321
  c8323
  c8324
  c8325
  c8326
  c8327
  c8328
  c8329
  c833
  c8330
  c8331
  c8332
  c8333
  c8334
  c8335
  c8336
  c8337
  c8338
  c8339
  c8341
  c8343
  c8344
  c8345
  c8346
  c8347
  c8348
  c8349
  c835
  c8350
  c8351
  c8352
  c8353
  c8355
  c8356
  c8357
  c8358
  c8359
  c836
  c8360
  c8361
  c8362
  c8365
  c8366
  c8367
  c8368
  c8369
  c8370
  c8371
  c8372
  c8373
  c8374
  c8375
  c8376
  c8377
  c8378
  c8379
  c8381
  c8383
  c8384
  c8385
  c8387
  c8388
  c8389
  c8390
  c8391
  c8392
  c8393
  c8394
  c8396
  c8397
  c8398
  c8399
  c84
  c840
  c8400
  c8401
  c8402
  c8403
  c8406
  c8407
  c8408
  c8409
  c841
  c8410
  c8411
  c8412
  c8413
  c8414
  c8415
  c8416
  c8417
  c8418
  c8419
  c8420
  c8421
  c8422
  c8423
  c8426
  c8427
  c8428
  c8429
  c843
  c8430
  c8431
  c8432
  c8433
  c8434
  c8435
  c8436
  c8437
  c8438
  c8439
  c844
  c8440
  c8441
  c8442
  c8445
  c8446
  c8447
  c8448
  c8449
  c8450
  c8451
  c8453
  c8454
  c8455
  c8456
  c8457
  c8458
  c8459
  c846
  c8460
  c8461
  c8465
  c8467
  c8468
  c8469
  c847
  c8470
  c8471
  c8472
  c8473
  c8474
  c8475
  c8476
  c8477
  c8478
  c8479
  c8480
  c8484
  c8485
  c8486
  c8487
  c8488
  c8489
  c849
  c8490
  c8491
  c8492
  c8493
  c8494
  c8495
  c8496
  c8497
  c8498
  c8499
  c85
  c850
  c8500
  c8501
  c8502
  c8503
  c8504
  c8505
  c8506
  c8507
  c8508
  c8519
  c852
  c8520
  c8522
  c8523
  c8524
  c8525
  c8527
  c8528
  c8529
  c853
  c8530
  c8531
  c8532
  c8533
  c8534
  c8535
  c8536
  c8537
  c8538
  c8540
  c8541
  c8542
  c8543
  c8544
  c8545
  c8546
  c8547
  c8549
  c8550
  c8551
  c8552
  c8553
  c8554
  c8555
  c8556
  c8558
  c8560
  c8561
  c8562
  c8563
  c8564
  c8565
  c8566
  c8567
  c8568
  c8569
  c8570
  c8571
  c8572
  c8573
  c8574
  c8575
  c8576
  c8578
  c858
  c8580
  c8581
  c8582
  c8583
  c8584
  c8585
  c8586
  c8587
  c8588
  c8589
  c859
  c8591
  c8592
  c8593
  c8594
  c8595
  c8596
  c8597
  c8598
  c8599
  c86
  c8602
  c8603
  c8604
  c8605
  c8606
  c8607
  c8608
  c8609
  c861
  c8610
  c8611
  c8612
  c8613
  c8614
  c8615
  c8616
  c8618
  c862
  c8621
  c8622
  c8624
  c8625
  c8626
  c8627
  c8628
  c8629
  c8630
  c8632
  c8633
  c8634
  c8635
  c8636
  c8637
  c8638
  c8639
  c864
  c8640
  c8643
  c8644
  c8645
  c8646
  c8647
  c8648
  c8649
  c865
  c8650
  c8651
  c8652
  c8653
  c8654
  c8655
  c8656
  c8657
  c8658
  c8659
  c8660
  c8663
  c8664
  c8665
  c8666
  c8667
  c8668
  c8669
  c867
  c8670
  c8671
  c8672
  c8673
  c8674
  c8675
  c8676
  c8677
  c8678
  c8679
  c868
  c8682
  c8683
  c8684
  c8685
  c8686
  c8687
  c8689
  c8690
  c8691
  c8692
  c8693
  c8694
  c8695
  c8696
  c8697
  c8698
  c87
  c870
  c8702
  c8704
  c8705
  c8706
  c8707
  c8708
  c8709
  c871
  c8710
  c8711
  c8712
  c8713
  c8714
  c8715
  c8716
  c8717
  c8721
  c8722
  c8723
  c8724
  c8725
  c8726
  c8727
  c8728
  c8729
  c873
  c8730
  c8731
  c8732
  c8733
  c8734
  c8735
  c8736
  c8737
  c8738
  c8739
  c874
  c8740
  c8741
  c8742
  c8743
  c8744
  c8745
  c8756
  c8757
  c8759
  c8760
  c8761
  c8763
  c8764
  c8765
  c8766
  c8767
  c8768
  c8769
  c8770
  c8771
  c8772
  c8773
  c8774
  c8775
  c8777
  c8778
  c8779
  c8780
  c8781
  c8782
  c8783
  c8785
  c8786
  c8787
  c8788
  c8789
  c8790
  c8791
  c8792
  c8793
  c8795
  c8797
  c8798
  c8799
  c88
  c880
  c8800
  c8801
  c8802
  c8803
  c8804
  c8805
  c8806
  c8807
  c8808
  c8809
  c881
  c8810
  c8811
  c8812
  c8813
  c8815
  c8818
  c8819
  c8820
  c8821
  c8822
  c8823
  c8824
  c8825
  c8827
  c8828
  c8829
  c883
  c8830
  c8831
  c8832
  c8833
  c8834
  c8835
  c8836
  c8839
  c884
  c8840
  c8841
  c8842
  c8843
  c8844
  c8845
  c8846
  c8847
  c8848
  c8849
  c8850
  c8851
  c8852
  c8853
  c8855
  c8857
  c8858
  c8859
  c886
  c8861
  c8862
  c8863
  c8864
  c8865
  c8866
  c8868
  c8869
  c887
  c8870
  c8871
  c8872
  c8873
  c8874
  c8875
  c8876
  c8877
  c8880
  c8881
  c8882
  c8883
  c8884
  c8885
  c8886
  c8887
  c8888
  c8889
  c889
  c8890
  c8891
  c8892
  c8893
  c8894
  c8895
  c8896
  c8897
  c890
  c8900
  c8901
  c8902
  c8903
  c8904
  c8905
  c8906
  c8907
  c8908
  c8909
  c8910
  c8911
  c8912
  c8913
  c8914
  c8915
  c8916
  c8918
  c8919
  c892
  c8920
  c8921
  c8922
  c8923
  c8925
  c8926
  c8927
  c8928
  c8929
  c893
  c8930
  c8931
  c8932
  c8933
  c8934
  c8935
  c8949
  c895
  c8951
  c8952
  c8953
  c8954
  c8955
  c8956
  c8957
  c8958
  c8959
  c896
  c8960
  c8961
  c8962
  c8963
  c8964
  c8976
  c8977
  c8978
  c8979
  c898
  c8980
  c8981
  c8982
  c8983
  c8984
  c8985
  c8986
  c8987
  c8988
  c8989
  c899
  c8990
  c8991
  c8992
  c8993
  c8994
  c8995
  c8996
  c8997
  c8998
  c8999
  c90
  c9000
  c9010
  c9029
  c9030
  c9041
  c9042
  c9047
  c9048
  c9049
  c9050
  c9051
  c9052
  c9053
  c9054
  c9055
  c9057
  c9058
  c9059
  c906
  c9060
  c9061
  c9062
  c9063
  c9064
  c9065
  c9066
  c9068
  c9069
  c907
  c9074
  c9075
  c9076
  c9077
  c9078
  c9079
  c9080
  c9081
  c9082
  c9083
  c9084
  c9085
  c9086
  c9087
  c9088
  c9089
  c909
  c9090
  c9091
  c9092
  c9093
  c9094
  c9095
  c9096
  c9097
  c9098
  c9099
  c91
  c910
  c9100
  c9101
  c9102
  c9103
  c9104
  c9105
  c9106
  c9107
  c9108
  c9109
  c9110
  c9111
  c9112
  c9113
  c9114
  c9117
  c9118
  c9119
  c912
  c9120
  c9121
  c9122
  c9123
  c9124
  c913
  c9143
  c9144
  c9148
  c9149
  c915
  c9152
  c9154
  c9156
  c9157
  c9159
  c916
  c9162
  c9163
  c9165
  c9168
  c9172
  c9176
  c9177
  c9178
  c9179
  c918
  c9180
  c9181
  c919
  c921
  c922
  c924
  c925
  c927
  c928
  c93
  c936
  c937
  c939
  c94
  c940
  c942
  c943
  c945
  c946
  c948
  c949
  c951
  c952
  c954
  c955
  c957
  c958
  c96
  c960
  c961
  c97
  c970
  c971
  c973
  c974
  c976
  c977
  c979
  c98
  c980
  c982
  c983
  c985
  c986
  c988
  c989
  c99
  c991
  c992
  c994
  c995 )
